Problem:    
Rows:       256
Columns:    89 (72 integer, 72 binary)
Non-zeros:  960
Status:     INTEGER OPTIMAL
Objective:  value = 191.5595 (MINimum)

   No.   Row name        Activity     Lower bound   Upper bound
------ ------------    ------------- ------------- -------------
     1 r.5                   1191.56             0               
     2 r.6                  -909.592      -973.256               
     3 r.7                   191.559             0               
     4 r.8                   90.4077        -959.9               
     5 r.9                   191.559             0               
     6 r.10                  119.644      -971.829               
     7 r.11                  1191.56             0               
     8 r.12                 -949.388       -957.73               
     9 r.13                  191.559             0               
    10 r.14                  119.644      -952.147               
    11 r.15                  1191.56             0               
    12 r.16                 -880.356      -930.968               
    13 r.17                  1191.56             0               
    14 r.18                 -968.281      -974.709               
    15 r.19                  191.559             0               
    16 r.20                  55.3662      -961.379               
    17 r.21                  1191.56             0               
    18 r.22                  -938.99      -976.018               
    19 r.23                  191.559             0               
    20 r.24                   92.785      -965.188               
    21 r.25                  1191.56             0               
    22 r.26                 -998.882      -998.882               
    23 r.27                  191.559             0               
    24 r.28                  11.1819      -987.823               
    25 r.29                  1191.56             0               
    26 r.30                 -808.441      -898.848               
    27 r.31                  191.559             0               
    28 r.32                  191.559      -928.382               
    29 r.33                  191.559             0               
    30 r.34                  191.559      -898.644               
    31 r.35                  1191.56             0               
    32 r.36                 -808.441      -928.085               
    33 r.37                        1             1             = 
    34 r.38                        1             1             = 
    35 r.39                        1             1             = 
    36 r.40                        1             1             = 
    37 r.41                        1             1             = 
    38 r.42                        1             1             = 
    39 r.43                        1             1             = 
    40 r.44                        1             1             = 
    41 r.45                     1001             2               
    42 r.46                    -1001         -1001               
    43 r.47                  2029.24      -971.829               
    44 r.48                     1001             2               
    45 r.49                    -1001         -1001               
    46 r.50                   1960.2       -957.73               
    47 r.51                     1001             2               
    48 r.52                    -1001         -1001               
    49 r.53                  2029.24      -952.147               
    50 r.54                     1001             2               
    51 r.55                    -1001         -1001               
    52 r.56                  2029.24      -930.968               
    53 r.57                        2             2               
    54 r.58                       -2         -1001               
    55 r.59                 -58.6889      -974.709               
    56 r.60                     1000             2               
    57 r.61                    -1000         -1001               
    58 r.62                  1964.96      -961.379               
    59 r.63                        2             2               
    60 r.64                       -2         -1001               
    61 r.65                 -29.3981      -976.018               
    62 r.66                     1000             2               
    63 r.67                    -1000         -1001               
    64 r.68                  2002.38      -965.188               
    65 r.69                  -916.02      -973.256               
    66 r.70                  83.9804        -959.9               
    67 r.71                  -916.02      -973.256               
    68 r.72                  83.9804        -959.9               
    69 r.73                 -898.848      -898.848               
    70 r.74                  101.152      -928.382               
    71 r.75                 -898.848      -898.848               
    72 r.76                  101.152      -928.382               
    73 r.77                     1001             2               
    74 r.78                    -1001         -1001               
    75 r.79                  2101.15      -898.644               
    76 r.80                     1001             2               
    77 r.81                    -1001         -1001               
    78 r.82                  2101.15      -928.085               
    79 r.83                     1001             2               
    80 r.84                    -1001         -1001               
    81 r.85                  1970.76       26.7437               
    82 r.86                     1001             2               
    83 r.87                    -1001         -1001               
    84 r.88                   2039.8       40.1004               
    85 r.89                     1000             2               
    86 r.90                    -1000         -1001               
    87 r.91                     2000      -952.147               
    88 r.92                        2             2               
    89 r.93                       -2         -1001               
    90 r.94                 -930.968      -930.968               
    91 r.95                     1001             2               
    92 r.96                    -1001         -1001               
    93 r.97                  1912.07      -974.709               
    94 r.98                     1001             2               
    95 r.99                    -1001         -1001               
    96 r.100                 2004.75      -961.379               
    97 r.101                    1001             2               
    98 r.102                   -1001         -1001               
    99 r.103                 1941.37      -976.018               
   100 r.104                    1001             2               
   101 r.105                   -1001         -1001               
   102 r.106                 2042.17      -965.188               
   103 r.107                 113.217      -971.829               
   104 r.108                -955.816       -957.73               
   105 r.109                 113.217      -971.829               
   106 r.110                -955.816       -957.73               
   107 r.111                    1001             2               
   108 r.112                   -1001         -1001               
   109 r.113                 2071.92      -898.848               
   110 r.114                    1001             2               
   111 r.115                   -1001         -1001               
   112 r.116                 2140.95      -928.382               
   113 r.117                 71.9155      -898.644               
   114 r.118                -928.085      -928.085               
   115 r.119                 140.948      -898.644               
   116 r.120                -859.052      -928.085               
   117 r.121                    1001             2               
   118 r.122                   -1001         -1001               
   119 r.123                 1970.76       26.7437               
   120 r.124                    1001             2               
   121 r.125                   -1001         -1001               
   122 r.126                 1970.76       40.1004               
   123 r.127                    1000             2               
   124 r.128                   -1000         -1001               
   125 r.129                    2000       28.1707               
   126 r.130                       2             2               
   127 r.131                      -2         -1001               
   128 r.132                 930.968       42.2699               
   129 r.133                 82.6164      -952.147               
   130 r.134                -917.384      -930.968               
   131 r.135                 69.0324      -952.147               
   132 r.136                -930.968      -930.968               
   133 r.137                    1001             2               
   134 r.138                   -1001         -1001               
   135 r.139                 1941.37      -976.018               
   136 r.140                    1001             2               
   137 r.141                   -1001         -1001               
   138 r.142                 1973.14      -965.188               
   139 r.143                 113.217      -952.147               
   140 r.144                -886.783      -930.968               
   141 r.145                 113.217      -952.147               
   142 r.146                -886.783      -930.968               
   143 r.147                    1001             2               
   144 r.148                   -1001         -1001               
   145 r.149                 2071.92      -898.848               
   146 r.150                    1001             2               
   147 r.151                   -1001         -1001               
   148 r.152                 2071.92      -928.382               
   149 r.153                 71.9155      -898.644               
   150 r.154                -928.085      -928.085               
   151 r.155                 71.9155      -898.644               
   152 r.156                -928.085      -928.085               
   153 r.157                       2             2               
   154 r.158                      -2         -1001               
   155 r.159                 53.3801       26.7437               
   156 r.160                    1000             2               
   157 r.161                   -1000         -1001               
   158 r.162                  2039.8       40.1004               
   159 r.163                    1001             2               
   160 r.164                   -1001         -1001               
   161 r.165                 2082.62       28.1707               
   162 r.166                    1001             2               
   163 r.167                   -1001         -1001               
   164 r.168                    2000       42.2699               
   165 r.169                       2             2               
   166 r.170                      -2         -1001               
   167 r.171                -976.018      -976.018               
   168 r.172                    1000             2               
   169 r.173                   -1000         -1001               
   170 r.174                 2042.17      -965.188               
   171 r.175                -974.709      -974.709               
   172 r.176                 48.9389      -961.379               
   173 r.177                -974.709      -974.709               
   174 r.178                 48.9389      -961.379               
   175 r.179                       2             2               
   176 r.180                      -2         -1001               
   177 r.181                -845.468      -898.848               
   178 r.182                    1000             2               
   179 r.183                   -1000         -1001               
   180 r.184                 2140.95      -928.382               
   181 r.185                 154.532      -898.644               
   182 r.186                -845.468      -928.085               
   183 r.187                 140.948      -898.644               
   184 r.188                -859.052      -928.085               
   185 r.189                       2             2               
   186 r.190                      -2         -1001               
   187 r.191                 26.7437       26.7437               
   188 r.192                    1000             2               
   189 r.193                   -1000         -1001               
   190 r.194                    2000       40.1004               
   191 r.195                    1001             2               
   192 r.196                   -1001         -1001               
   193 r.197                 2055.98       28.1707               
   194 r.198                    1001             2               
   195 r.199                   -1001         -1001               
   196 r.200                  1960.2       42.2699               
   197 r.201                    1001             2               
   198 r.202                   -1001         -1001               
   199 r.203                 2055.98       47.8535               
   200 r.204                    1001             2               
   201 r.205                   -1001         -1001               
   202 r.206                 2029.24       69.0324               
   203 r.207                       2             2               
   204 r.208                      -2         -1001               
   205 r.209                 968.055       25.2915               
   206 r.210                    1000             2               
   207 r.211                   -1000         -1001               
   208 r.212                 1964.96       38.6215               
   209 r.213                -945.418      -976.018               
   210 r.214                 86.3577      -965.188               
   211 r.215                -945.418      -976.018               
   212 r.216                 86.3577      -965.188               
   213 r.217                -872.105      -898.848               
   214 r.218                 127.895      -928.382               
   215 r.219                -898.848      -898.848               
   216 r.220                 101.152      -928.382               
   217 r.221                 127.895      -898.644               
   218 r.222                -872.105      -928.085               
   219 r.223                 101.152      -898.644               
   220 r.224                -898.848      -928.085               
   221 r.225                    1001             2               
   222 r.226                   -1001         -1001               
   223 r.227                 1928.08       28.1707               
   224 r.228                    1001             2               
   225 r.229                   -1001         -1001               
   226 r.230                 1859.05       42.2699               
   227 r.231                    1001             2               
   228 r.232                   -1001         -1001               
   229 r.233                 1928.08       47.8535               
   230 r.234                    1001             2               
   231 r.235                   -1001         -1001               
   232 r.236                 1928.08       69.0324               
   233 r.237                       2             2               
   234 r.238                      -2         -1001               
   235 r.239                 840.159       25.2915               
   236 r.240                    1000             2               
   237 r.241                   -1000         -1001               
   238 r.242                 1863.81       38.6215               
   239 r.243                    1001             2               
   240 r.244                   -1001         -1001               
   241 r.245                    2000      -898.644               
   242 r.246                    1001             2               
   243 r.247                   -1001         -1001               
   244 r.248                    2000      -928.085               
   245 r.249                    1001             2               
   246 r.250                   -1001         -1001               
   247 r.251                 1898.85       26.7437               
   248 r.252                    1001             2               
   249 r.253                   -1001         -1001               
   250 r.254                 1898.85       40.1004               
   251 r.255                    1001             2               
   252 r.256                   -1001         -1001               
   253 r.257                    2000       101.152               
   254 r.258                    1001             2               
   255 r.259                   -1001         -1001               
   256 r.260                    2000       71.6177               

   No. Column name       Activity     Lower bound   Upper bound
------ ------------    ------------- ------------- -------------
     1 tt                    191.559             0               
     2 s_1_1        *              1             0             1 
     3 t_1_1                 101.152             0               
     4 s_1_7        *              1             0             1 
     5 s_2_1        *              0             0             1 
     6 t_2_1                 101.152             0               
     7 s_2_7        *              0             0             1 
     8 s_1_2        *              0             0             1 
     9 t_1_2                 71.9155             0               
    10 s_1_8        *              0             0             1 
    11 s_2_2        *              1             0             1 
    12 t_2_2                 140.948             0               
    13 s_2_8        *              1             0             1 
    14 s_1_3        *              0             0             1 
    15 t_1_3                 71.9155             0               
    16 s_2_3        *              1             0             1 
    17 t_2_3                 71.9155             0               
    18 s_1_4        *              1             0             1 
    19 t_1_4                 154.532             0               
    20 s_2_4        *              0             0             1 
    21 t_2_4                 140.948             0               
    22 s_1_5        *              1             0             1 
    23 t_1_5                 127.895             0               
    24 s_2_5        *              0             0             1 
    25 t_2_5                 101.152             0               
    26 s_1_6        *              1             0             1 
    27 t_1_6                 185.132             0               
    28 s_2_6        *              0             0             1 
    29 t_2_6                 185.132             0               
    30 t_1_7                       0             0               
    31 t_2_7                       0             0               
    32 t_1_8                       0             0               
    33 t_2_8                       0             0               
    34 r_1_1_2      *              1             0             1 
    35 u_1_1_2      *              0             0             1 
    36 r_2_1_2      *              1             0             1 
    37 u_2_1_2      *              0             0             1 
    38 r_1_1_3      *              1             0             1 
    39 u_1_1_3      *              0             0             1 
    40 r_2_1_3      *              1             0             1 
    41 u_2_1_3      *              0             0             1 
    42 r_1_1_4      *              0             0             1 
    43 u_1_1_4      *              0             0             1 
    44 r_2_1_4      *              1             0             1 
    45 u_2_1_4      *              0             0             1 
    46 r_1_1_5      *              0             0             1 
    47 u_1_1_5      *              0             0             1 
    48 r_2_1_5      *              1             0             1 
    49 u_2_1_5      *              0             0             1 
    50 r_1_1_8      *              1             0             1 
    51 u_1_1_8      *              0             0             1 
    52 r_2_1_8      *              1             0             1 
    53 u_2_1_8      *              0             0             1 
    54 r_1_2_3      *              1             0             1 
    55 u_1_2_3      *              0             0             1 
    56 r_2_2_3      *              0             0             1 
    57 u_2_2_3      *              1             0             1 
    58 r_1_2_4      *              1             0             1 
    59 u_1_2_4      *              0             0             1 
    60 r_2_2_4      *              1             0             1 
    61 u_2_2_4      *              0             0             1 
    62 r_1_2_5      *              1             0             1 
    63 u_1_2_5      *              0             0             1 
    64 r_2_2_5      *              1             0             1 
    65 u_2_2_5      *              0             0             1 
    66 r_1_2_7      *              1             0             1 
    67 u_1_2_7      *              0             0             1 
    68 r_2_2_7      *              1             0             1 
    69 u_2_2_7      *              0             0             1 
    70 r_1_3_5      *              1             0             1 
    71 u_1_3_5      *              0             0             1 
    72 r_2_3_5      *              1             0             1 
    73 u_2_3_5      *              0             0             1 
    74 r_1_3_7      *              1             0             1 
    75 u_1_3_7      *              0             0             1 
    76 r_2_3_7      *              1             0             1 
    77 u_2_3_7      *              0             0             1 
    78 r_1_4_5      *              0             0             1 
    79 u_1_4_5      *              1             0             1 
    80 r_2_4_5      *              1             0             1 
    81 u_2_4_5      *              0             0             1 
    82 r_1_4_7      *              0             0             1 
    83 u_1_4_7      *              1             0             1 
    84 r_2_4_7      *              1             0             1 
    85 u_2_4_7      *              0             0             1 
    86 r_1_7_8      *              1             0             1 
    87 u_1_7_8      *              0             0             1 
    88 r_2_7_8      *              1             0             1 
    89 u_2_7_8      *              0             0             1 

Integer feasibility conditions:

KKT.PE: max.abs.err = 2.27e-13 on row 2
        max.rel.err = 1.06e-16 on row 90
        High quality

KKT.PB: max.abs.err = 1.14e-13 on row 22
        max.rel.err = 1.22e-16 on row 132
        High quality

End of output
